
<<< setup


<<< generate

Version identifier: 22.1.1.0 | 2022-11-28 | 9160aff4d
CPXPARAM_TimeLimit                               1800
Found incumbent of value 0.000000 after 0.00 sec. (0.01 ticks)
Tried aggregator 1 time.
MIP Presolve eliminated 58 rows and 39 columns.
MIP Presolve modified 284 coefficients.
Reduced MIP has 188 rows, 171 columns, and 668 nonzeros.
Reduced MIP has 152 binaries, 19 generals, 0 SOSs, and 0 indicators.
Presolve time = 0.00 sec. (0.40 ticks)
Probing time = 0.00 sec. (0.25 ticks)
Tried aggregator 1 time.
Detecting symmetries...
Reduced MIP has 188 rows, 171 columns, and 668 nonzeros.
Reduced MIP has 152 binaries, 19 generals, 0 SOSs, and 0 indicators.
Presolve time = 0.00 sec. (0.52 ticks)
Probing time = 0.00 sec. (0.25 ticks)
Clique table members: 555.
MIP emphasis: balance optimality and feasibility.
MIP search method: dynamic search.
Parallel mode: deterministic, using up to 8 threads.
Root relaxation solution time = 0.00 sec. (0.36 ticks)

        Nodes                                         Cuts/
   Node  Left     Objective  IInf  Best Integer    Best Bound    ItCnt     Gap

*     0+    0                            0.0000       22.0000              --- 
*     0+    0                            4.0000       22.0000           450.00%
      0     0       20.5000    66        4.0000       20.5000       31  412.50%
      0     0       18.8333    56        4.0000      Cuts: 63      108  370.83%
*     0+    0                           12.0000       18.8333            56.94%
      0     0       18.0000    68       12.0000      Cuts: 96      202   50.00%
      0     0       18.0000    71       12.0000      Cuts: 64      290   50.00%
      0     0       17.7500    38       12.0000      Cuts: 19      336   47.92%
      0     0       17.7500    47       12.0000      Cuts: 42      380   47.92%
*     0+    0                           13.0000       17.7500            36.54%
      0     2       17.7500    37       13.0000       14.6000      380   12.31%
Elapsed time = 0.03 sec. (24.31 ticks, tree = 0.02 MB, solutions = 4)

Clique cuts applied:  20
Implied bound cuts applied:  39
Flow cuts applied:  2
Mixed integer rounding cuts applied:  5
Zero-half cuts applied:  13
Gomory fractional cuts applied:  2

Root node processing (before b&c):
  Real time             =    0.02 sec. (24.21 ticks)
Parallel b&c, 8 threads:
  Real time             =    0.01 sec. (4.22 ticks)
  Sync time (average)   =    0.01 sec.
  Wait time (average)   =    0.00 sec.
                          ------------
Total (root+branch&cut) =    0.04 sec. (28.43 ticks)

<<< solve


OBJECTIVE: 13

<<< post process


<<< done

